p edge 24 41
e 1 6
e 1 12
e 1 16
e 1 17
e 2 3
e 2 8
e 2 14
e 2 21
e 3 17
e 4 15
e 5 16
e 5 17
e 5 18
e 5 19
e 6 16
e 6 17
e 6 18
e 6 22
e 7 11
e 7 14
e 7 16
e 7 21
e 7 24
e 8 19
e 9 10
e 10 15
e 10 16
e 10 20
e 10 21
e 11 23
e 13 18
e 13 19
e 13 23
e 14 21
e 15 16
e 15 19
e 16 21
e 16 24
e 17 19
e 17 22
e 18 19
